benchmarks_CP/INST_36x36/35/inst36x36_35_14.dzn
S=6;
start=[|
31,	-1,	33,	-1,	-1,	7,	-1,	-1,	-1,	14,	27,	2,	-1,	-1,	-1,	-1,	-1,	5,	17,	16,	-1,	-1,	-1,	-1,	-1,	-1,	-1,	30,	-1,	3,	-1,	23,	-1,	-1,	-1,	22|
-1,	22,	-1,	-1,	16,	2,	-1,	29,	-1,	36,	-1,	-1,	-1,	-1,	-1,	-1,	26,	-1,	23,	-1,	-1,	-1,	7,	6,	33,	34,	5,	-1,	-1,	-1,	27,	-1,	19,	31,	-1,	8|
-1,	5,	-1,	-1,	18,	34,	19,	-1,	30,	4,	22,	17,	-1,	-1,	-1,	-1,	-1,	-1,	25,	-1,	-1,	36,	-1,	1,	-1,	-1,	9,	8,	21,	-1,	-1,	-1,	-1,	2,	-1,	26|
-1,	23,	3,	-1,	-1,	-1,	-1,	-1,	5,	26,	33,	31,	-1,	-1,	10,	2,	-1,	-1,	-1,	28,	8,	-1,	15,	-1,	-1,	-1,	-1,	-1,	-1,	29,	-1,	18,	-1,	-1,	-1,	-1|
29,	30,	-1,	36,	-1,	-1,	-1,	16,	-1,	23,	28,	-1,	-1,	31,	33,	8,	-1,	-1,	-1,	-1,	19,	-1,	-1,	-1,	-1,	-1,	12,	-1,	26,	-1,	-1,	13,	-1,	1,	-1,	-1|
-1,	-1,	-1,	21,	-1,	27,	7,	-1,	1,	6,	8,	-1,	-1,	14,	16,	-1,	35,	13,	-1,	22,	-1,	-1,	-1,	-1,	-1,	11,	32,	31,	-1,	-1,	-1,	-1,	-1,	3,	-1,	17|
-1,	27,	23,	-1,	-1,	-1,	22,	17,	36,	9,	12,	-1,	11,	20,	-1,	10,	-1,	-1,	-1,	-1,	-1,	-1,	-1,	24,	19,	-1,	2,	21,	35,	5,	-1,	-1,	-1,	-1,	-1,	32|
-1,	15,	-1,	5,	-1,	-1,	23,	-1,	-1,	35,	14,	-1,	13,	-1,	6,	-1,	-1,	-1,	-1,	-1,	-1,	12,	-1,	-1,	29,	20,	-1,	-1,	7,	-1,	-1,	25,	16,	24,	-1,	-1|
-1,	-1,	-1,	-1,	-1,	33,	2,	-1,	-1,	34,	-1,	5,	-1,	-1,	31,	-1,	-1,	23,	14,	-1,	-1,	16,	-1,	-1,	24,	15,	-1,	28,	-1,	-1,	-1,	-1,	-1,	-1,	-1,	-1|
-1,	12,	10,	-1,	-1,	-1,	-1,	-1,	-1,	20,	-1,	-1,	-1,	-1,	30,	-1,	-1,	-1,	15,	-1,	5,	-1,	-1,	-1,	-1,	-1,	-1,	-1,	8,	-1,	-1,	1,	-1,	-1,	-1,	35|
-1,	-1,	-1,	17,	-1,	-1,	24,	-1,	-1,	28,	31,	-1,	-1,	-1,	1,	-1,	-1,	-1,	20,	23,	-1,	-1,	-1,	-1,	-1,	-1,	-1,	-1,	-1,	13,	-1,	-1,	-1,	-1,	-1,	-1|
-1,	-1,	-1,	32,	30,	-1,	11,	15,	-1,	-1,	-1,	-1,	8,	-1,	24,	-1,	-1,	28,	-1,	27,	17,	18,	-1,	-1,	-1,	14,	-1,	12,	-1,	10,	29,	-1,	23,	-1,	36,	21|
-1,	-1,	1,	2,	-1,	10,	-1,	18,	17,	-1,	4,	-1,	-1,	9,	-1,	-1,	-1,	-1,	-1,	-1,	-1,	11,	22,	-1,	12,	24,	13,	-1,	-1,	32,	6,	-1,	-1,	-1,	-1,	-1|
-1,	14,	15,	34,	-1,	-1,	-1,	8,	-1,	-1,	-1,	-1,	-1,	27,	-1,	5,	13,	33,	9,	-1,	-1,	1,	-1,	18,	-1,	-1,	-1,	-1,	20,	6,	-1,	-1,	-1,	-1,	-1,	-1|
-1,	9,	-1,	-1,	-1,	-1,	-1,	-1,	-1,	-1,	13,	-1,	28,	-1,	17,	26,	20,	1,	-1,	-1,	32,	15,	6,	34,	-1,	33,	-1,	16,	36,	-1,	-1,	-1,	-1,	-1,	3,	-1|
-1,	13,	-1,	11,	-1,	16,	-1,	-1,	-1,	-1,	23,	-1,	-1,	7,	12,	-1,	-1,	-1,	28,	-1,	-1,	-1,	-1,	2,	22,	-1,	-1,	-1,	-1,	-1,	-1,	-1,	-1,	17,	18,	-1|
33,	-1,	-1,	-1,	-1,	35,	26,	-1,	20,	-1,	-1,	7,	34,	8,	-1,	18,	-1,	-1,	-1,	-1,	10,	-1,	30,	-1,	-1,	-1,	-1,	-1,	9,	-1,	2,	-1,	-1,	-1,	-1,	-1|
-1,	-1,	-1,	-1,	-1,	36,	-1,	5,	-1,	-1,	1,	-1,	-1,	-1,	-1,	-1,	-1,	-1,	-1,	-1,	-1,	-1,	23,	-1,	18,	26,	-1,	-1,	34,	17,	9,	-1,	-1,	-1,	29,	24|
-1,	1,	-1,	-1,	-1,	-1,	31,	23,	-1,	11,	-1,	9,	5,	16,	7,	-1,	18,	-1,	22,	-1,	-1,	-1,	-1,	17,	-1,	-1,	-1,	-1,	-1,	20,	-1,	19,	-1,	-1,	-1,	-1|
36,	-1,	24,	-1,	-1,	-1,	-1,	13,	4,	-1,	-1,	-1,	-1,	-1,	15,	-1,	31,	-1,	-1,	34,	27,	-1,	-1,	-1,	-1,	-1,	6,	32,	-1,	-1,	-1,	-1,	-1,	-1,	-1,	18|
-1,	-1,	13,	-1,	7,	-1,	-1,	36,	34,	-1,	16,	24,	-1,	22,	-1,	19,	-1,	-1,	-1,	32,	-1,	-1,	-1,	-1,	15,	-1,	-1,	-1,	17,	-1,	-1,	-1,	-1,	20,	30,	29|
30,	-1,	8,	22,	-1,	26,	33,	2,	-1,	-1,	7,	-1,	27,	-1,	20,	-1,	23,	-1,	-1,	-1,	-1,	21,	-1,	5,	16,	-1,	-1,	-1,	19,	-1,	-1,	-1,	-1,	-1,	-1,	4|
-1,	20,	-1,	-1,	-1,	-1,	-1,	-1,	15,	-1,	25,	-1,	-1,	-1,	8,	24,	-1,	-1,	4,	-1,	-1,	-1,	18,	-1,	26,	-1,	-1,	22,	-1,	-1,	3,	-1,	-1,	-1,	-1,	-1|
-1,	-1,	-1,	19,	21,	17,	-1,	28,	22,	-1,	-1,	-1,	-1,	-1,	-1,	-1,	-1,	-1,	-1,	-1,	-1,	-1,	20,	-1,	-1,	23,	24,	-1,	-1,	33,	34,	-1,	31,	-1,	-1,	1|
-1,	33,	-1,	-1,	-1,	-1,	13,	-1,	-1,	-1,	-1,	-1,	6,	-1,	-1,	15,	-1,	22,	-1,	-1,	-1,	-1,	35,	21,	30,	-1,	20,	-1,	25,	-1,	-1,	-1,	-1,	34,	-1,	-1|
17,	-1,	-1,	-1,	-1,	30,	-1,	-1,	-1,	-1,	-1,	-1,	-1,	11,	-1,	-1,	-1,	18,	6,	13,	-1,	-1,	-1,	15,	-1,	-1,	16,	35,	5,	-1,	-1,	-1,	-1,	-1,	-1,	-1|
1,	-1,	36,	-1,	-1,	-1,	25,	21,	-1,	-1,	-1,	-1,	10,	17,	35,	31,	-1,	-1,	-1,	33,	-1,	-1,	-1,	-1,	8,	2,	-1,	-1,	22,	-1,	-1,	-1,	-1,	-1,	-1,	15|
-1,	-1,	27,	-1,	-1,	11,	36,	-1,	-1,	-1,	35,	4,	3,	-1,	23,	-1,	-1,	25,	-1,	-1,	-1,	-1,	-1,	-1,	-1,	-1,	-1,	-1,	-1,	12,	5,	-1,	-1,	21,	8,	6|
-1,	19,	-1,	-1,	15,	31,	5,	-1,	-1,	-1,	-1,	-1,	-1,	-1,	-1,	-1,	7,	-1,	-1,	-1,	-1,	-1,	8,	10,	-1,	-1,	-1,	-1,	-1,	-1,	-1,	36,	-1,	-1,	4,	-1|
12,	-1,	-1,	-1,	-1,	-1,	-1,	-1,	-1,	18,	-1,	-1,	-1,	-1,	-1,	-1,	9,	8,	-1,	-1,	-1,	27,	11,	-1,	32,	-1,	-1,	36,	-1,	-1,	22,	17,	-1,	-1,	-1,	25|
-1,	-1,	26,	7,	10,	-1,	-1,	-1,	23,	-1,	-1,	-1,	14,	-1,	28,	34,	-1,	-1,	-1,	-1,	-1,	20,	-1,	-1,	-1,	30,	21,	-1,	-1,	-1,	-1,	-1,	-1,	-1,	-1,	9|
-1,	3,	-1,	-1,	13,	-1,	-1,	-1,	-1,	21,	26,	-1,	17,	-1,	-1,	-1,	8,	-1,	16,	14,	-1,	-1,	-1,	-1,	-1,	32,	19,	-1,	-1,	15,	-1,	-1,	34,	23,	-1,	33|
-1,	36,	9,	12,	-1,	24,	-1,	-1,	28,	-1,	-1,	-1,	-1,	-1,	-1,	-1,	-1,	-1,	5,	-1,	21,	-1,	17,	3,	-1,	-1,	22,	-1,	11,	-1,	-1,	-1,	-1,	-1,	-1,	19|
-1,	-1,	-1,	15,	4,	-1,	-1,	6,	-1,	-1,	-1,	-1,	-1,	33,	-1,	-1,	-1,	9,	12,	26,	-1,	29,	36,	-1,	-1,	-1,	-1,	-1,	-1,	-1,	-1,	-1,	27,	-1,	-1,	-1|
-1,	-1,	-1,	-1,	-1,	-1,	-1,	-1,	19,	29,	-1,	-1,	36,	32,	-1,	-1,	-1,	-1,	-1,	-1,	-1,	-1,	13,	25,	-1,	-1,	-1,	-1,	18,	28,	-1,	31,	8,	-1,	-1,	16|
-1,	-1,	-1,	-1,	-1,	29,	-1,	-1,	-1,	-1,	2,	-1,	21,	23,	19,	6,	-1,	-1,	34,	18,	15,	-1,	9,	-1,	-1,	-1,	-1,	13,	-1,	-1,	-1,	7,	-1,	30,	-1,	-1|];
